10J3M/DAT/10J3MNTX-2.dat
10 3
34.1976 5.8479
29.0727 5.3919
27.8195 5.2744
24.6642 4.9663
25.7412 5.0736
18.5634 4.3085
23.8466 4.8833
19.08 4.3681
25.4976 5.0495
36.1458 6.0121
12.7939