10J3M/SOL/10J3MNTX-2.sol
solution status: optimal solution found
objective value:                     62.6300257992231
x#1#1                               0.093018119511869 	(obj:0)
x#1#3                               0.906981880488131 	(obj:0)
x#2#2                               0.728019496782328 	(obj:0)
x#2#3                               0.271980503217672 	(obj:0)
x#3#1                                               1 	(obj:0)
x#4#1                                               1 	(obj:0)
x#6#3                                               1 	(obj:0)
x#7#2                               0.949669398617914 	(obj:0)
x#7#3                              0.0503306013820862 	(obj:0)
x#8#3                               0.162866809668074 	(obj:0)
x#10#1                              0.290868532224475 	(obj:0)
x#10#2                              0.709131467775524 	(obj:0)
z                                    62.6300257992231 	(obj:1)
